Maximize
 obj: 7.0 Ax + 19.0 Ex + 12.0 Dx + 7.0 Lx + 24.0 Ix + 21.0 Cx + 16.0 Jx + 7.0 Mx + 4.0 Hx + 14.0 Bx + 8.0 Gx + 2.0 Kx + 3.0 Fx - 10.0 Ad - 98.0 Ed - 16.0 Dd - 0.0 Ld - 12.0 Id - 1.0 Cd - 24.0 Jd - 0.0 Md - 4.0 Hd - 32.0 Bd - 37.0 Gd - 0.0 Kd - 14.0 Fd + 0.0Ac + 0.0Ec + 0.0Dc + 0.0Lc + 0.0Ic + 0.0Cc + 0.0Jc + 0.0Mc + 0.0Hc + 0.0Bc + 0.0Gc + 0.0Kc + 0.0Fc + 0.0 LToF + 0.0 JToF + 0.0 CToE + 0.0 CToH + 0.0 JToC + 0.0 BToD + 0.0 EToI + 0.0 DToL + 0.0 HToL + 0.0 LToD + 0.0 IToB + 0.0 HToH + 0.0 KToE + 0.0 FToG + 0.0 HToM + 0.0 KToF + 0.0 MToA + 0.0 BToM + 0.0 GToD + 0.0 GToF + 0.0 FToH + 0.0 EToL + 0.0 DToD + 0.0 FToL + 0.0 JToJ + 0.0 AToF + 0.0 EToD + 0.0 LToA + 0.0 CToL + 0.0 LToM + 0.0 AToJ + 0.0 DToI + 0.0 GToB + 0.0 CToK + 0.0 KToD + 0.0 BToB + 0.0 IToL + 0.0 LToC + 0.0 JToK + 0.0 HToE + 0.0 CToD + 0.0 BToC + 0.0 MToH + 0.0 DToK + 0.0 IToJ + 0.0 IToE + 0.0 FToJ + 0.0 IToK + 0.0 AToE + 0.0 BToL + 0.0 IToD + 0.0 JToE + 0.0 LToB + 0.0 FToE + 0.0 CToG + 0.0 EToC + 0.0 JToL + 0.0 DToJ + 0.0 IToA + 0.0 HToD + 0.0 JToI + 0.0 DToF + 0.0 FToI + 0.0 GToE + 0.0 DToM + 0.0 JToM + 0.0 AToL + 0.0 CToF + 0.0 LToI + 0.0 JToG + 0.0 FToB + 0.0 FToF + 0.0 GToJ + 0.0 FToA + 0.0 HToG + 0.0 LToL + 0.0 FToM + 0.0 JToD + 0.0 LToJ + 0.0 KToI + 0.0 AToC + 0.0 GToG + 0.0 LToG + 0.0 EToK + 0.0 KToM + 0.0 BToH + 0.0 IToM + 0.0 MToJ + 0.0 EToA + 0.0 HToI + 0.0 BToI + 0.0 AToH + 0.0 BToG + 0.0 AToG + 0.0 DToA + 0.0 AToA + 0.0 HToF + 0.0 BToJ + 0.0 GToH + 0.0 DToC + 0.0 BToK + 0.0 DToE + 0.0 EToH + 0.0 LToK + 0.0 MToB + 0.0 KToK + 0.0 GToI + 0.0 CToI + 0.0 GToA + 0.0 MToC + 0.0 KToJ + 0.0 AToD + 0.0 EToG + 0.0 CToM + 0.0 AToM + 0.0 JToA + 0.0 DToH + 0.0 KToL + 0.0 IToI + 0.0 MToI + 0.0 LToE + 0.0 HToJ + 0.0 MToF + 0.0 AToK + 0.0 KToA + 0.0 GToK + 0.0 KToH + 0.0 MToD + 0.0 GToL + 0.0 HToC + 0.0 GToC + 0.0 HToB + 0.0 FToD + 0.0 JToB + 0.0 DToG + 0.0 IToC + 0.0 DToB + 0.0 HToK + 0.0 BToE + 0.0 BToF + 0.0 CToA + 0.0 MToM + 0.0 MToE + 0.0 KToG + 0.0 MToG + 0.0 KToB + 0.0 AToI + 0.0 CToC + 0.0 JToH + 0.0 EToB + 0.0 HToA + 0.0 IToF + 0.0 GToM + 0.0 FToK + 0.0 FToC + 0.0 CToB + 0.0 IToG + 0.0 LToH + 0.0 MToK + 0.0 BToA + 0.0 KToC + 0.0 EToF + 0.0 MToL + 0.0 CToJ + 0.0 EToE + 0.0 EToM + 0.0 IToH + 0.0 AToB + 0.0 EToJ - 9.0 hyperedge7 - 14.0 hyperedge5 - 19.0 hyperedge11 - 14.0 hyperedge2 - 31.0 hyperedge8 - 33.0 hyperedge6 - 12.0 hyperedge10 - 8.0 hyperedge9 - 57.0 hyperedge4 - 5.0 hyperedge3 - 45.0 hyperedge12 - 4.0 hyperedge1
Subject To
 c44_hyperedge7: Ix - 1 hyperedge7 >= 0
 c43_hyperedge7: Jx - 1 hyperedge7 >= 0
 c44_hyperedge5: Ex - 1 hyperedge5 >= 0
 c43_hyperedge5: Lx + Hx - 2 hyperedge5 >= 0
 c44_hyperedge11: Lx - 1 hyperedge11 >= 0
 c43_hyperedge11: Kx + Hx - 2 hyperedge11 >= 0
 c44_hyperedge2: Bx - 1 hyperedge2 >= 0
 c43_hyperedge2: Fx - 1 hyperedge2 >= 0
 c44_hyperedge8: Jx - 1 hyperedge8 >= 0
 c43_hyperedge8: Ix - 1 hyperedge8 >= 0
 c44_hyperedge6: Gx + Fx - 2 hyperedge6 >= 0
 c43_hyperedge6: Ix - 1 hyperedge6 >= 0
 c44_hyperedge10: Ix - 1 hyperedge10 >= 0
 c43_hyperedge10: Lx + Mx - 2 hyperedge10 >= 0
 c44_hyperedge9: Hx - 1 hyperedge9 >= 0
 c43_hyperedge9: Lx - 1 hyperedge9 >= 0
 c44_hyperedge4: Dx + Ex - 2 hyperedge4 >= 0
 c43_hyperedge4: Kx + Hx - 2 hyperedge4 >= 0
 c44_hyperedge3: Cx - 1 hyperedge3 >= 0
 c43_hyperedge3: Gx + Fx - 2 hyperedge3 >= 0
 c44_hyperedge12: Ex - 1 hyperedge12 >= 0
 c43_hyperedge12: Bx - 1 hyperedge12 >= 0
 c44_hyperedge1: Ax - 1 hyperedge1 >= 0
 c43_hyperedge1: Dx + Bx - 2 hyperedge1 >= 0
 c45_A: Ad - Ax <= 0
 c45_B: Bd - Bx <= 0
 c45_C: Cd - Cx <= 0
 c45_D: Dd - Dx <= 0
 c45_E: Ed - Ex <= 0
 c45_F: Fd - Fx <= 0
 c45_G: Gd - Gx <= 0
 c45_H: Hd - Hx <= 0
 c45_I: Id - Ix <= 0
 c45_J: Jd - Jx <= 0
 c45_K: Kd - Kx <= 0
 c45_L: Ld - Lx <= 0
 c45_M: Md - Mx <= 0
 c46_A: Ad - Ax >= 0
 c46_E: Ed - Ex >= 0
 c46_D: Dd - Dx + hyperedge1 >= 0
 c46_L: Ld - Lx + hyperedge10 + hyperedge9 + hyperedge5 >= 0
 c46_I: Id - Ix + hyperedge6 + hyperedge8 >= 0
 c46_C: Cd - Cx >= 0
 c46_J: Jd - Jx + hyperedge7 >= 0
 c46_M: Md - Mx + hyperedge10 >= 0
 c46_H: Hd - Hx + hyperedge4 + hyperedge5 + hyperedge11 >= 0
 c46_B: Bd - Bx + hyperedge1 + hyperedge12 >= 0
 c46_G: Gd - Gx + hyperedge3 >= 0
 c46_K: Kd - Kx + hyperedge4 + hyperedge11 >= 0
 c46_F: Fd - Fx + hyperedge2 + hyperedge3 >= 0
 dc1_A: Ac - Ax <= 0
 dc1_B: Bc - Bx <= 0
 dc1_C: Cc - Cx <= 0
 dc1_D: Dc - Dx <= 0
 dc1_E: Ec - Ex <= 0
 dc1_F: Fc - Fx <= 0
 dc1_G: Gc - Gx <= 0
 dc1_H: Hc - Hx <= 0
 dc1_I: Ic - Ix <= 0
 dc1_J: Jc - Jx <= 0
 dc1_K: Kc - Kx <= 0
 dc1_L: Lc - Lx <= 0
 dc1_M: Mc - Mx <= 0
 dc2_A: Ac - Ax + hyperedge1 >= 0
 dc2_E: Ec - Ex + hyperedge4 + hyperedge5 + hyperedge12 >= 0
 dc2_D: Dc - Dx + hyperedge4 >= 0
 dc2_L: Lc - Lx + hyperedge11 >= 0
 dc2_I: Ic - Ix + hyperedge7 + hyperedge10 >= 0
 dc2_C: Cc - Cx + hyperedge3 >= 0
 dc2_J: Jc - Jx + hyperedge8 >= 0
 dc2_M: Mc - Mx >= 0
 dc2_H: Hc - Hx + hyperedge9 >= 0
 dc2_B: Bc - Bx + hyperedge2 >= 0
 dc2_G: Gc - Gx + hyperedge6 >= 0
 dc2_K: Kc - Kx >= 0
 dc2_F: Fc - Fx + hyperedge6 >= 0
 dc3_AToA: Ac + Ad + AToA <= 2
 dc3_AToE: Ac + Ed + AToE <= 2
 dc3_AToD: Ac + Dd + AToD <= 2
 dc3_AToL: Ac + Ld + AToL <= 2
 dc3_AToI: Ac + Id + AToI <= 2
 dc3_AToC: Ac + Cd + AToC <= 2
 dc3_AToJ: Ac + Jd + AToJ <= 2
 dc3_AToM: Ac + Md + AToM <= 2
 dc3_AToH: Ac + Hd + AToH <= 2
 dc3_AToB: Ac + Bd + AToB <= 2
 dc3_AToG: Ac + Gd + AToG <= 2
 dc3_AToK: Ac + Kd + AToK <= 2
 dc3_AToF: Ac + Fd + AToF <= 2
 dc3_EToA: Ec + Ad + EToA <= 2
 dc3_EToE: Ec + Ed + EToE <= 2
 dc3_EToD: Ec + Dd + EToD <= 2
 dc3_EToL: Ec + Ld + EToL <= 2
 dc3_EToI: Ec + Id + EToI <= 2
 dc3_EToC: Ec + Cd + EToC <= 2
 dc3_EToJ: Ec + Jd + EToJ <= 2
 dc3_EToM: Ec + Md + EToM <= 2
 dc3_EToH: Ec + Hd + EToH <= 2
 dc3_EToB: Ec + Bd + EToB <= 2
 dc3_EToG: Ec + Gd + EToG <= 2
 dc3_EToK: Ec + Kd + EToK <= 2
 dc3_EToF: Ec + Fd + EToF <= 2
 dc3_DToA: Dc + Ad + DToA <= 2
 dc3_DToE: Dc + Ed + DToE <= 2
 dc3_DToD: Dc + Dd + DToD <= 2
 dc3_DToL: Dc + Ld + DToL <= 2
 dc3_DToI: Dc + Id + DToI <= 2
 dc3_DToC: Dc + Cd + DToC <= 2
 dc3_DToJ: Dc + Jd + DToJ <= 2
 dc3_DToM: Dc + Md + DToM <= 2
 dc3_DToH: Dc + Hd + DToH <= 2
 dc3_DToB: Dc + Bd + DToB <= 2
 dc3_DToG: Dc + Gd + DToG <= 2
 dc3_DToK: Dc + Kd + DToK <= 2
 dc3_DToF: Dc + Fd + DToF <= 2
 dc3_LToA: Lc + Ad + LToA <= 2
 dc3_LToE: Lc + Ed + LToE <= 2
 dc3_LToD: Lc + Dd + LToD <= 2
 dc3_LToL: Lc + Ld + LToL <= 2
 dc3_LToI: Lc + Id + LToI <= 2
 dc3_LToC: Lc + Cd + LToC <= 2
 dc3_LToJ: Lc + Jd + LToJ <= 2
 dc3_LToM: Lc + Md + LToM <= 2
 dc3_LToH: Lc + Hd + LToH <= 2
 dc3_LToB: Lc + Bd + LToB <= 2
 dc3_LToG: Lc + Gd + LToG <= 2
 dc3_LToK: Lc + Kd + LToK <= 2
 dc3_LToF: Lc + Fd + LToF <= 2
 dc3_IToA: Ic + Ad + IToA <= 2
 dc3_IToE: Ic + Ed + IToE <= 2
 dc3_IToD: Ic + Dd + IToD <= 2
 dc3_IToL: Ic + Ld + IToL <= 2
 dc3_IToI: Ic + Id + IToI <= 2
 dc3_IToC: Ic + Cd + IToC <= 2
 dc3_IToJ: Ic + Jd + IToJ <= 2
 dc3_IToM: Ic + Md + IToM <= 2
 dc3_IToH: Ic + Hd + IToH <= 2
 dc3_IToB: Ic + Bd + IToB <= 2
 dc3_IToG: Ic + Gd + IToG <= 2
 dc3_IToK: Ic + Kd + IToK <= 2
 dc3_IToF: Ic + Fd + IToF <= 2
 dc3_CToA: Cc + Ad + CToA <= 2
 dc3_CToE: Cc + Ed + CToE <= 2
 dc3_CToD: Cc + Dd + CToD <= 2
 dc3_CToL: Cc + Ld + CToL <= 2
 dc3_CToI: Cc + Id + CToI <= 2
 dc3_CToC: Cc + Cd + CToC <= 2
 dc3_CToJ: Cc + Jd + CToJ <= 2
 dc3_CToM: Cc + Md + CToM <= 2
 dc3_CToH: Cc + Hd + CToH <= 2
 dc3_CToB: Cc + Bd + CToB <= 2
 dc3_CToG: Cc + Gd + CToG <= 2
 dc3_CToK: Cc + Kd + CToK <= 2
 dc3_CToF: Cc + Fd + CToF <= 2
 dc3_JToA: Jc + Ad + JToA <= 2
 dc3_JToE: Jc + Ed + JToE <= 2
 dc3_JToD: Jc + Dd + JToD <= 2
 dc3_JToL: Jc + Ld + JToL <= 2
 dc3_JToI: Jc + Id + JToI <= 2
 dc3_JToC: Jc + Cd + JToC <= 2
 dc3_JToJ: Jc + Jd + JToJ <= 2
 dc3_JToM: Jc + Md + JToM <= 2
 dc3_JToH: Jc + Hd + JToH <= 2
 dc3_JToB: Jc + Bd + JToB <= 2
 dc3_JToG: Jc + Gd + JToG <= 2
 dc3_JToK: Jc + Kd + JToK <= 2
 dc3_JToF: Jc + Fd + JToF <= 2
 dc3_MToA: Mc + Ad + MToA <= 2
 dc3_MToE: Mc + Ed + MToE <= 2
 dc3_MToD: Mc + Dd + MToD <= 2
 dc3_MToL: Mc + Ld + MToL <= 2
 dc3_MToI: Mc + Id + MToI <= 2
 dc3_MToC: Mc + Cd + MToC <= 2
 dc3_MToJ: Mc + Jd + MToJ <= 2
 dc3_MToM: Mc + Md + MToM <= 2
 dc3_MToH: Mc + Hd + MToH <= 2
 dc3_MToB: Mc + Bd + MToB <= 2
 dc3_MToG: Mc + Gd + MToG <= 2
 dc3_MToK: Mc + Kd + MToK <= 2
 dc3_MToF: Mc + Fd + MToF <= 2
 dc3_HToA: Hc + Ad + HToA <= 2
 dc3_HToE: Hc + Ed + HToE <= 2
 dc3_HToD: Hc + Dd + HToD <= 2
 dc3_HToL: Hc + Ld + HToL <= 2
 dc3_HToI: Hc + Id + HToI <= 2
 dc3_HToC: Hc + Cd + HToC <= 2
 dc3_HToJ: Hc + Jd + HToJ <= 2
 dc3_HToM: Hc + Md + HToM <= 2
 dc3_HToH: Hc + Hd + HToH <= 2
 dc3_HToB: Hc + Bd + HToB <= 2
 dc3_HToG: Hc + Gd + HToG <= 2
 dc3_HToK: Hc + Kd + HToK <= 2
 dc3_HToF: Hc + Fd + HToF <= 2
 dc3_BToA: Bc + Ad + BToA <= 2
 dc3_BToE: Bc + Ed + BToE <= 2
 dc3_BToD: Bc + Dd + BToD <= 2
 dc3_BToL: Bc + Ld + BToL <= 2
 dc3_BToI: Bc + Id + BToI <= 2
 dc3_BToC: Bc + Cd + BToC <= 2
 dc3_BToJ: Bc + Jd + BToJ <= 2
 dc3_BToM: Bc + Md + BToM <= 2
 dc3_BToH: Bc + Hd + BToH <= 2
 dc3_BToB: Bc + Bd + BToB <= 2
 dc3_BToG: Bc + Gd + BToG <= 2
 dc3_BToK: Bc + Kd + BToK <= 2
 dc3_BToF: Bc + Fd + BToF <= 2
 dc3_GToA: Gc + Ad + GToA <= 2
 dc3_GToE: Gc + Ed + GToE <= 2
 dc3_GToD: Gc + Dd + GToD <= 2
 dc3_GToL: Gc + Ld + GToL <= 2
 dc3_GToI: Gc + Id + GToI <= 2
 dc3_GToC: Gc + Cd + GToC <= 2
 dc3_GToJ: Gc + Jd + GToJ <= 2
 dc3_GToM: Gc + Md + GToM <= 2
 dc3_GToH: Gc + Hd + GToH <= 2
 dc3_GToB: Gc + Bd + GToB <= 2
 dc3_GToG: Gc + Gd + GToG <= 2
 dc3_GToK: Gc + Kd + GToK <= 2
 dc3_GToF: Gc + Fd + GToF <= 2
 dc3_KToA: Kc + Ad + KToA <= 2
 dc3_KToE: Kc + Ed + KToE <= 2
 dc3_KToD: Kc + Dd + KToD <= 2
 dc3_KToL: Kc + Ld + KToL <= 2
 dc3_KToI: Kc + Id + KToI <= 2
 dc3_KToC: Kc + Cd + KToC <= 2
 dc3_KToJ: Kc + Jd + KToJ <= 2
 dc3_KToM: Kc + Md + KToM <= 2
 dc3_KToH: Kc + Hd + KToH <= 2
 dc3_KToB: Kc + Bd + KToB <= 2
 dc3_KToG: Kc + Gd + KToG <= 2
 dc3_KToK: Kc + Kd + KToK <= 2
 dc3_KToF: Kc + Fd + KToF <= 2
 dc3_FToA: Fc + Ad + FToA <= 2
 dc3_FToE: Fc + Ed + FToE <= 2
 dc3_FToD: Fc + Dd + FToD <= 2
 dc3_FToL: Fc + Ld + FToL <= 2
 dc3_FToI: Fc + Id + FToI <= 2
 dc3_FToC: Fc + Cd + FToC <= 2
 dc3_FToJ: Fc + Jd + FToJ <= 2
 dc3_FToM: Fc + Md + FToM <= 2
 dc3_FToH: Fc + Hd + FToH <= 2
 dc3_FToB: Fc + Bd + FToB <= 2
 dc3_FToG: Fc + Gd + FToG <= 2
 dc3_FToK: Fc + Kd + FToK <= 2
 dc3_FToF: Fc + Fd + FToF <= 2
Bounds
 Lx = 1
 Ld = 0
 Mx = 1
 Md = 0
 Kx = 1
 Kd = 0
 LToF = 0
 JToF = 0
 CToE = 0
 CToH = 1
 JToC = 0
 BToD = 0
 EToI = 1
 DToL = 1
 HToL = 1
 LToD = 0
 IToB = 0
 HToH = 1
 KToE = 0
 FToG = 0
 HToM = 0
 KToF = 0
 MToA = 0
 BToM = 1
 GToD = 0
 GToF = 0
 FToH = 1
 EToL = 1
 DToD = 1
 FToL = 1
 JToJ = 1
 AToF = 1
 EToD = 0
 LToA = 0
 CToL = 1
 LToM = 0
 AToJ = 1
 DToI = 0
 GToB = 0
 CToK = 1
 KToD = 0
 BToB = 1
 IToL = 1
 LToC = 0
 JToK = 1
 HToE = 0
 CToD = 0
 BToC = 0
 MToH = 0
 DToK = 1
 IToJ = 1
 IToE = 0
 FToJ = 1
 IToK = 1
 AToE = 0
 BToL = 1
 IToD = 0
 JToE = 0
 LToB = 0
 FToE = 0
 CToG = 1
 EToC = 0
 JToL = 1
 DToJ = 0
 IToA = 0
 HToD = 0
 JToI = 1
 DToF = 0
 FToI = 1
 GToE = 0
 DToM = 0
 JToM = 1
 AToL = 1
 CToF = 1
 LToI = 0
 JToG = 0
 FToB = 0
 FToF = 1
 GToJ = 1
 FToA = 0
 HToG = 0
 LToL = 1
 FToM = 1
 JToD = 0
 LToJ = 0
 KToI = 0
 AToC = 0
 GToG = 1
 LToG = 0
 EToK = 1
 KToM = 0
 BToH = 1
 IToM = 1
 MToJ = 0
 EToA = 0
 HToI = 0
 BToI = 1
 AToH = 1
 BToG = 0
 AToG = 0
 DToA = 0
 AToA = 1
 HToF = 0
 BToJ = 1
 GToH = 1
 DToC = 0
 BToK = 1
 DToE = 0
 EToH = 1
 LToK = 1
 MToB = 0
 KToK = 1
 GToI = 1
 CToI = 1
 GToA = 0
 MToC = 0
 KToJ = 0
 AToD = 1
 EToG = 0
 CToM = 1
 AToM = 1
 JToA = 0
 DToH = 1
 KToL = 0
 IToI = 1
 MToI = 0
 LToE = 0
 HToJ = 0
 MToF = 0
 AToK = 1
 KToA = 0
 GToK = 1
 KToH = 0
 MToD = 0
 GToL = 1
 HToC = 0
 GToC = 0
 HToB = 0
 FToD = 0
 JToB = 0
 DToG = 0
 IToC = 0
 DToB = 0
 HToK = 1
 BToE = 0
 BToF = 1
 CToA = 0
 MToM = 1
 MToE = 0
 KToG = 0
 MToG = 0
 KToB = 0
 AToI = 1
 CToC = 1
 JToH = 1
 EToB = 1
 HToA = 0
 IToF = 0
 GToM = 1
 FToK = 1
 FToC = 0
 CToB = 0
 IToG = 0
 LToH = 1
 MToK = 0
 BToA = 0
 KToC = 0
 EToF = 1
 MToL = 0
 CToJ = 1
 EToE = 1
 EToM = 1
 IToH = 1
 AToB = 1
 EToJ = 1
Binary
 Ax
 Bx
 Cx
 Dx
 Ex
 Fx
 Gx
 Hx
 Ix
 Jx
 Kx
 Lx
 Mx
 Ad
 Bd
 Cd
 Dd
 Ed
 Fd
 Gd
 Hd
 Id
 Jd
 Kd
 Ld
 Md
 hyperedge1
 hyperedge10
 hyperedge11
 hyperedge12
 hyperedge2
 hyperedge3
 hyperedge4
 hyperedge5
 hyperedge6
 hyperedge7
 hyperedge8
 hyperedge9
 LToF
 JToF
 CToE
 CToH
 JToC
 BToD
 EToI
 DToL
 HToL
 LToD
 IToB
 HToH
 KToE
 FToG
 HToM
 KToF
 MToA
 BToM
 GToD
 GToF
 FToH
 EToL
 DToD
 FToL
 JToJ
 AToF
 EToD
 LToA
 CToL
 LToM
 AToJ
 DToI
 GToB
 CToK
 KToD
 BToB
 IToL
 LToC
 JToK
 HToE
 CToD
 BToC
 MToH
 DToK
 IToJ
 IToE
 FToJ
 IToK
 AToE
 BToL
 IToD
 JToE
 LToB
 FToE
 CToG
 EToC
 JToL
 DToJ
 IToA
 HToD
 JToI
 DToF
 FToI
 GToE
 DToM
 JToM
 AToL
 CToF
 LToI
 JToG
 FToB
 FToF
 GToJ
 FToA
 HToG
 LToL
 FToM
 JToD
 LToJ
 KToI
 AToC
 GToG
 LToG
 EToK
 KToM
 BToH
 IToM
 MToJ
 EToA
 HToI
 BToI
 AToH
 BToG
 AToG
 DToA
 AToA
 HToF
 BToJ
 GToH
 DToC
 BToK
 DToE
 EToH
 LToK
 MToB
 KToK
 GToI
 CToI
 GToA
 MToC
 KToJ
 AToD
 EToG
 CToM
 AToM
 JToA
 DToH
 KToL
 IToI
 MToI
 LToE
 HToJ
 MToF
 AToK
 KToA
 GToK
 KToH
 MToD
 GToL
 HToC
 GToC
 HToB
 FToD
 JToB
 DToG
 IToC
 DToB
 HToK
 BToE
 BToF
 CToA
 MToM
 MToE
 KToG
 MToG
 KToB
 AToI
 CToC
 JToH
 EToB
 HToA
 IToF
 GToM
 FToK
 FToC
 CToB
 IToG
 LToH
 MToK
 BToA
 KToC
 EToF
 MToL
 CToJ
 EToE
 EToM
 IToH
 AToB
 EToJ
End
